c Generated map
c Size: 9 * 9, weights in range: 1 to 10, walls: False, with ratio 0.0
c dim 6 of 7
c
p sp 81 144
c graph contains 81 nodes and 144 arcs
c
a 1 10 6
a 10 1 6
a 1 2 8
a 2 1 8
a 2 11 8
a 11 2 8
a 2 3 7
a 3 2 7
a 3 12 9
a 12 3 9
a 3 4 10
a 4 3 10
a 4 13 8
a 13 4 8
a 4 5 9
a 5 4 9
a 5 14 6
a 14 5 6
a 5 6 8
a 6 5 8
a 6 15 10
a 15 6 10
a 6 7 7
a 7 6 7
a 7 16 6
a 16 7 6
a 7 8 3
a 8 7 3
a 8 17 8
a 17 8 8
a 8 9 6
a 9 8 6
a 9 18 9
a 18 9 9
a 10 19 10
a 19 10 10
a 10 11 5
a 11 10 5
a 11 20 9
a 20 11 9
a 11 12 4
a 12 11 4
a 12 21 7
a 21 12 7
a 12 13 10
a 13 12 10
a 13 22 5
a 22 13 5
a 13 14 7
a 14 13 7
a 14 23 8
a 23 14 8
a 14 15 2
a 15 14 2
a 15 24 4
a 24 15 4
a 15 16 2
a 16 15 2
a 16 25 3
a 25 16 3
a 16 17 8
a 17 16 8
a 17 26 10
a 26 17 10
a 17 18 3
a 18 17 3
a 18 27 4
a 27 18 4
a 19 28 9
a 28 19 9
a 19 20 10
a 20 19 10
a 20 29 8
a 29 20 8
a 20 21 10
a 21 20 10
a 21 30 8
a 30 21 8
a 21 22 2
a 22 21 2
a 22 31 9
a 31 22 9
a 22 23 10
a 23 22 10
a 23 32 5
a 32 23 5
a 23 24 9
a 24 23 9
a 24 33 1
a 33 24 1
a 24 25 7
a 25 24 7
a 25 34 7
a 34 25 7
a 25 26 7
a 26 25 7
a 26 35 4
a 35 26 4
a 26 27 6
a 27 26 6
a 27 36 5
a 36 27 5
a 28 37 6
a 37 28 6
a 28 29 3
a 29 28 3
a 29 38 6
a 38 29 6
a 29 30 9
a 30 29 9
a 30 39 5
a 39 30 5
a 30 31 4
a 31 30 4
a 31 40 8
a 40 31 8
a 31 32 1
a 32 31 1
a 32 41 4
a 41 32 4
a 32 33 5
a 33 32 5
a 33 42 7
a 42 33 7
a 33 34 7
a 34 33 7
a 34 43 9
a 43 34 9
a 34 35 6
a 35 34 6
a 35 44 8
a 44 35 8
a 35 36 6
a 36 35 6
a 36 45 8
a 45 36 8
a 37 46 5
a 46 37 5
a 37 38 9
a 38 37 9
a 38 47 6
a 47 38 6
a 38 39 7
a 39 38 7
a 39 48 4
a 48 39 4
a 39 40 6
a 40 39 6
a 40 49 7
a 49 40 7
a 40 41 9
a 41 40 9
a 41 50 5
a 50 41 5
a 41 42 8
a 42 41 8
a 42 51 2
a 51 42 2
a 42 43 2
a 43 42 2
a 43 52 4
a 52 43 4
a 43 44 6
a 44 43 6
a 44 53 9
a 53 44 9
a 44 45 8
a 45 44 8
a 45 54 5
a 54 45 5
a 46 55 2
a 55 46 2
a 46 47 8
a 47 46 8
a 47 56 5
a 56 47 5
a 47 48 5
a 48 47 5
a 48 57 6
a 57 48 6
a 48 49 1
a 49 48 1
a 49 58 3
a 58 49 3
a 49 50 8
a 50 49 8
a 50 59 3
a 59 50 3
a 50 51 4
a 51 50 4
a 51 60 10
a 60 51 10
a 51 52 2
a 52 51 2
a 52 61 1
a 61 52 1
a 52 53 1
a 53 52 1
a 53 62 10
a 62 53 10
a 53 54 7
a 54 53 7
a 54 63 6
a 63 54 6
a 55 64 10
a 64 55 10
a 55 56 4
a 56 55 4
a 56 65 6
a 65 56 6
a 56 57 2
a 57 56 2
a 57 66 9
a 66 57 9
a 57 58 5
a 58 57 5
a 58 67 4
a 67 58 4
a 58 59 7
a 59 58 7
a 59 68 7
a 68 59 7
a 59 60 5
a 60 59 5
a 60 69 4
a 69 60 4
a 60 61 8
a 61 60 8
a 61 70 9
a 70 61 9
a 61 62 3
a 62 61 3
a 62 71 9
a 71 62 9
a 62 63 4
a 63 62 4
a 63 72 5
a 72 63 5
a 64 73 4
a 73 64 4
a 64 65 4
a 65 64 4
a 65 74 5
a 74 65 5
a 65 66 4
a 66 65 4
a 66 75 1
a 75 66 1
a 66 67 10
a 67 66 10
a 67 76 8
a 76 67 8
a 67 68 6
a 68 67 6
a 68 77 9
a 77 68 9
a 68 69 5
a 69 68 5
a 69 78 4
a 78 69 4
a 69 70 7
a 70 69 7
a 70 79 7
a 79 70 7
a 70 71 4
a 71 70 4
a 71 80 2
a 80 71 2
a 71 72 9
a 72 71 9
a 72 81 10
a 81 72 10
a 73 74 3
a 74 73 3
a 74 75 9
a 75 74 9
a 75 76 5
a 76 75 5
a 76 77 3
a 77 76 3
a 77 78 5
a 78 77 5
a 78 79 10
a 79 78 10
a 79 80 6
a 80 79 6
a 80 81 5
a 81 80 5
